102552
42,56,33,48,46,59,80,71,50,26,32,6,55,16,57,76,8,31,73,39,81,74,10,15,37,1,29,34,78,27,7,82,52,58,67,43,21,4,18,30,23,47,20,70,65,19,66,75,35,25,69,13,61,79,53,45,44,28,9,0,63,72,12,36,17,64,49,3,62,38,51,40,77,60,5,14,68,24,41,54,22,11,2
